lps/t1_ID000M003J005_ZintTrue_liao_desig.lp
\ This file has been generated by DOcplex
\ ENCODING=ISO-8859-1
\Problem name: liao_desig

Minimize
 obj: cmax
Subject To
 c1: x_1_0 - x_0_0 >= 1
 c2: x_2_0 - x_1_0 >= 3
 c3: x_0_1 - x_1_1 >= 8
 c4: x_2_1 - x_0_1 >= 5
 c5: x_2_2 - x_0_2 >= 5
 c6: x_1_2 - x_2_2 >= 4
 c7: x_0_3 - x_2_3 >= 4
 c8: x_1_3 - x_0_3 >= 10
 c9: x_2_4 - x_1_4 >= 8
 c10: x_0_4 - x_2_4 >= 3
 c11: x_0_0 - x_0_1 + 84 z_0_0_1 - q_0_0_1 = 5
 c12: x_0_0 - x_0_2 + 84 z_0_0_2 - q_0_0_2 = 5
 c13: x_0_0 - x_0_3 + 84 z_0_0_3 - q_0_0_3 = 10
 c14: x_0_0 - x_0_4 + 84 z_0_0_4 - q_0_0_4 = 7
 c15: x_0_1 - x_0_2 + 84 z_0_1_2 - q_0_1_2 = 5
 c16: x_0_1 - x_0_3 + 84 z_0_1_3 - q_0_1_3 = 10
 c17: x_0_1 - x_0_4 + 84 z_0_1_4 - q_0_1_4 = 7
 c18: x_0_2 - x_0_3 + 84 z_0_2_3 - q_0_2_3 = 10
 c19: x_0_2 - x_0_4 + 84 z_0_2_4 - q_0_2_4 = 7
 c20: x_0_3 - x_0_4 + 84 z_0_3_4 - q_0_3_4 = 7
 c21: x_1_0 - x_1_1 + 84 z_1_0_1 - q_1_0_1 = 8
 c22: x_1_0 - x_1_2 + 84 z_1_0_2 - q_1_0_2 = 8
 c23: x_1_0 - x_1_3 + 84 z_1_0_3 - q_1_0_3 = 6
 c24: x_1_0 - x_1_4 + 84 z_1_0_4 - q_1_0_4 = 8
 c25: x_1_1 - x_1_2 + 84 z_1_1_2 - q_1_1_2 = 8
 c26: x_1_1 - x_1_3 + 84 z_1_1_3 - q_1_1_3 = 6
 c27: x_1_1 - x_1_4 + 84 z_1_1_4 - q_1_1_4 = 8
 c28: x_1_2 - x_1_3 + 84 z_1_2_3 - q_1_2_3 = 6
 c29: x_1_2 - x_1_4 + 84 z_1_2_4 - q_1_2_4 = 8
 c30: x_1_3 - x_1_4 + 84 z_1_3_4 - q_1_3_4 = 8
 c31: x_2_0 - x_2_1 + 84 z_2_0_1 - q_2_0_1 = 10
 c32: x_2_0 - x_2_2 + 84 z_2_0_2 - q_2_0_2 = 4
 c33: x_2_0 - x_2_3 + 84 z_2_0_3 - q_2_0_3 = 4
 c34: x_2_0 - x_2_4 + 84 z_2_0_4 - q_2_0_4 = 3
 c35: x_2_1 - x_2_2 + 84 z_2_1_2 - q_2_1_2 = 4
 c36: x_2_1 - x_2_3 + 84 z_2_1_3 - q_2_1_3 = 4
 c37: x_2_1 - x_2_4 + 84 z_2_1_4 - q_2_1_4 = 3
 c38: x_2_2 - x_2_3 + 84 z_2_2_3 - q_2_2_3 = 4
 c39: x_2_2 - x_2_4 + 84 z_2_2_4 - q_2_2_4 = 3
 c40: x_2_3 - x_2_4 + 84 z_2_3_4 - q_2_3_4 = 3
 c41: cmax - x_2_0 >= 2
 c42: cmax - x_2_1 >= 10
 c43: cmax - x_1_2 >= 8
 c44: cmax - x_1_3 >= 6
 c45: cmax - x_0_4 >= 7
 c46: x_0_0 + 5 z_0_0_1 + 5 z_0_0_2 + 10 z_0_0_3 + 7 z_0_0_4 >= 27
 c47: x_0_1 - z_0_0_1 + 5 z_0_1_2 + 10 z_0_1_3 + 7 z_0_1_4 >= 22
 c48: x_0_2 - z_0_0_2 - 5 z_0_1_2 + 10 z_0_2_3 + 7 z_0_2_4 >= 17
 c49: x_0_3 - z_0_0_3 - 5 z_0_1_3 - 5 z_0_2_3 + 7 z_0_3_4 >= 7
 c50: x_0_4 - z_0_0_4 - 5 z_0_1_4 - 5 z_0_2_4 - 10 z_0_3_4 >= 0
 c51: x_1_0 + 8 z_1_0_1 + 8 z_1_0_2 + 6 z_1_0_3 + 8 z_1_0_4 >= 30
 c52: x_1_1 - 3 z_1_0_1 + 8 z_1_1_2 + 6 z_1_1_3 + 8 z_1_1_4 >= 22
 c53: x_1_2 - 3 z_1_0_2 - 8 z_1_1_2 + 6 z_1_2_3 + 8 z_1_2_4 >= 14
 c54: x_1_3 - 3 z_1_0_3 - 8 z_1_1_3 - 8 z_1_2_3 + 8 z_1_3_4 >= 8
 c55: x_1_4 - 3 z_1_0_4 - 8 z_1_1_4 - 8 z_1_2_4 - 6 z_1_3_4 >= 0
 c56: x_2_0 + 10 z_2_0_1 + 4 z_2_0_2 + 4 z_2_0_3 + 3 z_2_0_4 >= 21
 c57: x_2_1 - 2 z_2_0_1 + 4 z_2_1_2 + 4 z_2_1_3 + 3 z_2_1_4 >= 11
 c58: x_2_2 - 2 z_2_0_2 - 10 z_2_1_2 + 4 z_2_2_3 + 3 z_2_2_4 >= 7
 c59: x_2_3 - 2 z_2_0_3 - 10 z_2_1_3 - 4 z_2_2_3 + 3 z_2_3_4 >= 3
 c60: x_2_4 - 2 z_2_0_4 - 10 z_2_1_4 - 4 z_2_2_4 - 4 z_2_3_4 >= 0
 c61: x_0_1 - z_0_0_1 >= 0
 c62: x_0_0 + 13 z_0_0_1 >= 13
 c63: x_0_2 - z_0_0_2 >= 0
 c64: x_0_0 + 5 z_0_0_2 >= 5
 c65: x_0_2 - 13 z_0_1_2 >= 0
 c66: x_0_1 + 5 z_0_1_2 >= 5
 c67: x_0_3 - z_0_0_3 >= 0
 c68: x_0_0 + 14 z_0_0_3 >= 14
 c69: x_0_3 - 13 z_0_1_3 >= 0
 c70: x_0_1 + 14 z_0_1_3 >= 14
 c71: x_0_3 - 5 z_0_2_3 >= 0
 c72: x_0_2 + 14 z_0_2_3 >= 14
 c73: x_0_4 - z_0_0_4 >= 0
 c74: x_0_0 + 18 z_0_0_4 >= 18
 c75: x_0_4 - 13 z_0_1_4 >= 0
 c76: x_0_1 + 18 z_0_1_4 >= 18
 c77: x_0_4 - 5 z_0_2_4 >= 0
 c78: x_0_2 + 18 z_0_2_4 >= 18
 c79: x_0_4 - 14 z_0_3_4 >= 0
 c80: x_0_3 + 18 z_0_3_4 >= 18
 c81: x_1_1 - 4 z_1_0_1 >= 0
 c82: x_1_0 + 8 z_1_0_1 >= 8
 c83: x_1_2 - 4 z_1_0_2 >= 0
 c84: x_1_0 + 17 z_1_0_2 >= 17
 c85: x_1_2 - 8 z_1_1_2 >= 0
 c86: x_1_1 + 17 z_1_1_2 >= 17
 c87: x_1_3 - 4 z_1_0_3 >= 0
 c88: x_1_0 + 20 z_1_0_3 >= 20
 c89: x_1_3 - 8 z_1_1_3 >= 0
 c90: x_1_1 + 20 z_1_1_3 >= 20
 c91: x_1_3 - 17 z_1_2_3 >= 0
 c92: x_1_2 + 20 z_1_2_3 >= 20
 c93: x_1_4 - 4 z_1_0_4 >= 0
 c94: x_1_0 + 8 z_1_0_4 >= 8
 c95: x_1_4 - 8 z_1_1_4 >= 0
 c96: x_1_1 + 8 z_1_1_4 >= 8
 c97: x_1_4 - 17 z_1_2_4 >= 0
 c98: x_1_2 + 8 z_1_2_4 >= 8
 c99: x_1_4 - 20 z_1_3_4 >= 0
 c100: x_1_3 + 8 z_1_3_4 >= 8
 c101: x_2_1 - 6 z_2_0_1 >= 0
 c102: x_2_0 + 23 z_2_0_1 >= 23
 c103: x_2_2 - 6 z_2_0_2 >= 0
 c104: x_2_0 + 9 z_2_0_2 >= 9
 c105: x_2_2 - 23 z_2_1_2 >= 0
 c106: x_2_1 + 9 z_2_1_2 >= 9
 c107: x_2_3 - 6 z_2_0_3 >= 0
 c108: x_2_0 + 4 z_2_0_3 >= 4
 c109: x_2_3 - 23 z_2_1_3 >= 0
 c110: x_2_1 + 4 z_2_1_3 >= 4
 c111: x_2_3 - 9 z_2_2_3 >= 0
 c112: x_2_2 + 4 z_2_2_3 >= 4
 c113: x_2_4 - 6 z_2_0_4 >= 0
 c114: x_2_0 + 11 z_2_0_4 >= 11
 c115: x_2_4 - 23 z_2_1_4 >= 0
 c116: x_2_1 + 11 z_2_1_4 >= 11
 c117: x_2_4 - 9 z_2_2_4 >= 0
 c118: x_2_2 + 11 z_2_2_4 >= 11
 c119: x_2_4 - 4 z_2_3_4 >= 0
 c120: x_2_3 + 11 z_2_3_4 >= 11
 c121: cmax - x_0_0 - 15 z_0_0_1 >= 1
 c122: cmax - x_0_1 + 6 z_0_0_1 >= 11
 c123: cmax - x_0_0 - 17 z_0_0_2 >= 1
 c124: cmax - x_0_2 + 6 z_0_0_2 >= 11
 c125: cmax - x_0_0 - 16 z_0_0_3 >= 1
 c126: cmax - x_0_3 + 6 z_0_0_3 >= 16
 c127: cmax - x_0_0 - 7 z_0_0_4 >= 1
 c128: cmax - x_0_4 + 6 z_0_0_4 >= 13
 c129: cmax - x_0_1 - 17 z_0_1_2 >= 5
 c130: cmax - x_0_2 + 15 z_0_1_2 >= 20
 c131: cmax - x_0_1 - 16 z_0_1_3 >= 5
 c132: cmax - x_0_3 + 15 z_0_1_3 >= 25
 c133: cmax - x_0_1 - 7 z_0_1_4 >= 5
 c134: cmax - x_0_4 + 15 z_0_1_4 >= 22
 c135: cmax - x_0_2 - 16 z_0_2_3 >= 5
 c136: cmax - x_0_3 + 17 z_0_2_3 >= 27
 c137: cmax - x_0_2 - 7 z_0_2_4 >= 5
 c138: cmax - x_0_4 + 17 z_0_2_4 >= 24
 c139: cmax - x_0_3 - 7 z_0_3_4 >= 10
 c140: cmax - x_0_4 + 16 z_0_3_4 >= 23
 c141: cmax - x_1_0 - 23 z_1_0_1 >= 3
 c142: cmax - x_1_1 + 5 z_1_0_1 >= 13
 c143: cmax - x_1_0 - 8 z_1_0_2 >= 3
 c144: cmax - x_1_2 + 5 z_1_0_2 >= 13
 c145: cmax - x_1_0 - 6 z_1_0_3 >= 3
 c146: cmax - x_1_3 + 5 z_1_0_3 >= 11
 c147: cmax - x_1_0 - 18 z_1_0_4 >= 3
 c148: cmax - x_1_4 + 5 z_1_0_4 >= 13
 c149: cmax - x_1_1 - 8 z_1_1_2 >= 8
 c150: cmax - x_1_2 + 23 z_1_1_2 >= 31
 c151: cmax - x_1_1 - 6 z_1_1_3 >= 8
 c152: cmax - x_1_3 + 23 z_1_1_3 >= 29
 c153: cmax - x_1_1 - 18 z_1_1_4 >= 8
 c154: cmax - x_1_4 + 23 z_1_1_4 >= 31
 c155: cmax - x_1_2 - 6 z_1_2_3 >= 8
 c156: cmax - x_1_3 + 8 z_1_2_3 >= 14
 c157: cmax - x_1_2 - 18 z_1_2_4 >= 8
 c158: cmax - x_1_4 + 8 z_1_2_4 >= 16
 c159: cmax - x_1_3 - 18 z_1_3_4 >= 6
 c160: cmax - x_1_4 + 6 z_1_3_4 >= 14
 c161: cmax - x_2_0 - 10 z_2_0_1 >= 2
 c162: cmax - x_2_1 + 2 z_2_0_1 >= 12
 c163: cmax - x_2_0 - 12 z_2_0_2 >= 2
 c164: cmax - x_2_2 + 2 z_2_0_2 >= 6
 c165: cmax - x_2_0 - 20 z_2_0_3 >= 2
 c166: cmax - x_2_3 + 2 z_2_0_3 >= 6
 c167: cmax - x_2_0 - 10 z_2_0_4 >= 2
 c168: cmax - x_2_4 + 2 z_2_0_4 >= 5
 c169: cmax - x_2_1 - 12 z_2_1_2 >= 10
 c170: cmax - x_2_2 + 10 z_2_1_2 >= 14
 c171: cmax - x_2_1 - 20 z_2_1_3 >= 10
 c172: cmax - x_2_3 + 10 z_2_1_3 >= 14
 c173: cmax - x_2_1 - 10 z_2_1_4 >= 10
 c174: cmax - x_2_4 + 10 z_2_1_4 >= 13
 c175: cmax - x_2_2 - 20 z_2_2_3 >= 4
 c176: cmax - x_2_3 + 12 z_2_2_3 >= 16
 c177: cmax - x_2_2 - 10 z_2_2_4 >= 4
 c178: cmax - x_2_4 + 12 z_2_2_4 >= 15
 c179: cmax - x_2_3 - 10 z_2_3_4 >= 4
 c180: cmax - x_2_4 + 20 z_2_3_4 >= 23
 c181: cmax - x_0_0 >= 6
 c182: cmax - x_0_1 >= 15
 c183: cmax - x_0_2 >= 17
 c184: cmax - x_0_3 >= 16
 c185: cmax - x_0_4 >= 7
 c186: cmax - x_1_0 >= 5
 c187: cmax - x_1_1 >= 23
 c188: cmax - x_1_2 >= 8
 c189: cmax - x_1_3 >= 6
 c190: cmax - x_1_4 >= 18
 c191: cmax - x_2_0 >= 2
 c192: cmax - x_2_1 >= 10
 c193: cmax - x_2_2 >= 12
 c194: cmax - x_2_3 >= 20
 c195: cmax - x_2_4 >= 10

Bounds
 0 <= z_0_0_1 <= 1
 0 <= z_0_0_2 <= 1
 0 <= z_0_0_3 <= 1
 0 <= z_0_0_4 <= 1
 0 <= z_0_1_2 <= 1
 0 <= z_0_1_3 <= 1
 0 <= z_0_1_4 <= 1
 0 <= z_0_2_3 <= 1
 0 <= z_0_2_4 <= 1
 0 <= z_0_3_4 <= 1
 0 <= z_1_0_1 <= 1
 0 <= z_1_0_2 <= 1
 0 <= z_1_0_3 <= 1
 0 <= z_1_0_4 <= 1
 0 <= z_1_1_2 <= 1
 0 <= z_1_1_3 <= 1
 0 <= z_1_1_4 <= 1
 0 <= z_1_2_3 <= 1
 0 <= z_1_2_4 <= 1
 0 <= z_1_3_4 <= 1
 0 <= z_2_0_1 <= 1
 0 <= z_2_0_2 <= 1
 0 <= z_2_0_3 <= 1
 0 <= z_2_0_4 <= 1
 0 <= z_2_1_2 <= 1
 0 <= z_2_1_3 <= 1
 0 <= z_2_1_4 <= 1
 0 <= z_2_2_3 <= 1
 0 <= z_2_2_4 <= 1
 0 <= z_2_3_4 <= 1
 23 <= cmax
       q_0_0_1 <= 78
       q_0_0_2 <= 78
       q_0_0_3 <= 73
       q_0_0_4 <= 76
       q_0_1_2 <= 74
       q_0_1_3 <= 69
       q_0_1_4 <= 72
       q_0_2_3 <= 69
       q_0_2_4 <= 72
       q_0_3_4 <= 67
       q_1_0_1 <= 73
       q_1_0_2 <= 73
       q_1_0_3 <= 75
       q_1_0_4 <= 73
       q_1_1_2 <= 68
       q_1_1_3 <= 70
       q_1_1_4 <= 68
       q_1_2_3 <= 70
       q_1_2_4 <= 68
       q_1_3_4 <= 70
       q_2_0_1 <= 72
       q_2_0_2 <= 78
       q_2_0_3 <= 78
       q_2_0_4 <= 79
       q_2_1_2 <= 70
       q_2_1_3 <= 70
       q_2_1_4 <= 71
       q_2_2_3 <= 76
       q_2_2_4 <= 77
       q_2_3_4 <= 77

Binaries
 z_0_0_1 z_0_0_2 z_0_0_3 z_0_0_4 z_0_1_2 z_0_1_3 z_0_1_4 z_0_2_3 z_0_2_4 z_0_3_4
 z_1_0_1 z_1_0_2 z_1_0_3 z_1_0_4 z_1_1_2 z_1_1_3 z_1_1_4 z_1_2_3 z_1_2_4 z_1_3_4
 z_2_0_1 z_2_0_2 z_2_0_3 z_2_0_4 z_2_1_2 z_2_1_3 z_2_1_4 z_2_2_3 z_2_2_4 z_2_3_4
End
